width = 19;

n_circuits = 14;

circuit_x = array1d(1..14, [3, 3, 3, 3, 3, 3, 3, 3, 3, 3, 3, 4, 4, 4]);

circuit_y = array1d(1..14, [3, 4, 5, 6, 7, 8, 9, 10, 11, 13, 19, 5, 6, 8]);

opt_height = 19;

max_y = 19;

